c 1 A1
c 2 C2
c 3 C4
c 4 A3
c 5 C5
c 6 A6
c 7 C7
c 8 C8
c 9 C9
c 10 C10
c 11 C12
c 12 C13
c 13 C14
c 14 C15
c 15 A11
c 16 C16
p cnf 16 20
1 0
1 -2 0
1 -4 0
1 -3 0
4 -5 0
4 -6 0
5 -4 0
6 -7 0
6 -8 0
6 -9 0
6 -10 0
6 -15 0
6 -11 0
6 -12 0
6 -13 0
6 -14 0
15 -16 0
16 -15 0
-1 -11 -13 -7 0
13 0